<?xml version = "1.0" encoding="UTF-8" standalone="yes"?>
<CPLEXSolution version="1.2">
 <header
   problemName="IloCplex"
   solutionName="p0"
   solutionIndex="-1"
   objectiveValue="-9063301120"
   solutionTypeValue="3"
   solutionTypeString="primal"
   solutionStatusValue="127"
   solutionStatusString="integer feasible solution"
   solutionMethodString="mip"
   primalFeasible="0"
   dualFeasible="0"
   writeLevel="3"/>
 <quality
   epInt="1.0000000000000001e-05"
   epRHS="9.9999999999999995e-07"
   maxIntInfeas="0"
   maxPrimalInfeas="0"
   maxX="1"
   maxSlack="1"/>
 <variables>
  <variable name="w16_13" index="285" value="1"/>
  <variable name="w16_14" index="286" value="1"/>
  <variable name="w16_15" index="287" value="1"/>
  <variable name="w17_13" index="302" value="1"/>
  <variable name="w17_14" index="303" value="1"/>
  <variable name="w17_15" index="304" value="1"/>
  <variable name="w18_13" index="319" value="1"/>
  <variable name="w18_14" index="320" value="1"/>
  <variable name="w18_15" index="321" value="1"/>
  <variable name="k16" index="356" value="1"/>
  <variable name="k17" index="357" value="1"/>
  <variable name="k18" index="358" value="1"/>
  <variable name="x0_27" index="387" value="1"/>
  <variable name="x1_90" index="550" value="1"/>
  <variable name="x2_38" index="598" value="1"/>
  <variable name="x3_68" index="728" value="1"/>
  <variable name="x4_98" index="858" value="1"/>
  <variable name="x5_40" index="900" value="1"/>
  <variable name="x6_35" index="995" value="1"/>
  <variable name="x7_21" index="1081" value="1"/>
  <variable name="x8_67" index="1227" value="1"/>
  <variable name="x9_49" index="1309" value="1"/>
  <variable name="x10_99" index="1459" value="1"/>
  <variable name="x11_95" index="1555" value="1"/>
  <variable name="x12_85" index="1645" value="1"/>
  <variable name="x13_70" index="1730" value="1"/>
  <variable name="x14_28" index="1788" value="1"/>
  <variable name="x15_31" index="1891" value="1"/>
  <variable name="x16_83" index="2043" value="1"/>
  <variable name="x17_15" index="2075" value="1"/>
  <variable name="x18_32" index="2192" value="1"/>
  <variable name="x19_94" index="2354" value="1"/>
  <variable name="x20_57" index="2417" value="1"/>
  <variable name="x21_58" index="2518" value="1"/>
  <variable name="x22_53" index="2613" value="1"/>
  <variable name="x23_76" index="2736" value="1"/>
  <variable name="x24_54" index="2814" value="1"/>
  <variable name="x25_0" index="2860" value="1"/>
  <variable name="x26_92" index="3052" value="1"/>
  <variable name="x27_91" index="3151" value="1"/>
  <variable name="x28_19" index="3179" value="1"/>
  <variable name="x29_9" index="3269" value="1"/>
  <variable name="x30_88" index="3448" value="1"/>
  <variable name="x31_71" index="3531" value="1"/>
  <variable name="x32_8" index="3568" value="1"/>
  <variable name="x33_65" index="3725" value="1"/>
  <variable name="x34_6" index="3766" value="1"/>
  <variable name="x35_80" index="3940" value="1"/>
  <variable name="x36_14" index="3974" value="1"/>
  <variable name="x37_1" index="4061" value="1"/>
  <variable name="x38_52" index="4212" value="1"/>
  <variable name="x39_97" index="4357" value="1"/>
  <variable name="x40_26" index="4386" value="1"/>
  <variable name="x41_4" index="4464" value="1"/>
  <variable name="x42_5" index="4565" value="1"/>
  <variable name="x43_93" index="4753" value="1"/>
  <variable name="x44_36" index="4796" value="1"/>
  <variable name="x45_78" index="4938" value="1"/>
  <variable name="x46_11" index="4971" value="1"/>
  <variable name="x47_60" index="5120" value="1"/>
  <variable name="x48_75" index="5235" value="1"/>
  <variable name="x49_16" index="5276" value="1"/>
  <variable name="x50_18" index="5378" value="1"/>
  <variable name="x51_84" index="5544" value="1"/>
  <variable name="x52_55" index="5615" value="1"/>
  <variable name="x53_50" index="5710" value="1"/>
  <variable name="x54_37" index="5797" value="1"/>
  <variable name="x55_45" index="5905" value="1"/>
  <variable name="x56_42" index="6002" value="1"/>
  <variable name="x57_22" index="6082" value="1"/>
  <variable name="x58_23" index="6183" value="1"/>
  <variable name="x59_96" index="6356" value="1"/>
  <variable name="x60_62" index="6422" value="1"/>
  <variable name="x61_46" index="6506" value="1"/>
  <variable name="x62_41" index="6601" value="1"/>
  <variable name="x63_24" index="6684" value="1"/>
  <variable name="x64_44" index="6804" value="1"/>
  <variable name="x65_61" index="6921" value="1"/>
  <variable name="x66_39" index="6999" value="1"/>
  <variable name="x67_20" index="7080" value="1"/>
  <variable name="x68_89" index="7249" value="1"/>
  <variable name="x69_10" index="7270" value="1"/>
  <variable name="x70_77" index="7437" value="1"/>
  <variable name="x71_13" index="7473" value="1"/>
  <variable name="x72_56" index="7616" value="1"/>
  <variable name="x73_17" index="7677" value="1"/>
  <variable name="x74_48" index="7808" value="1"/>
  <variable name="x75_2" index="7862" value="1"/>
  <variable name="x76_34" index="7994" value="1"/>
  <variable name="x77_72" index="8132" value="1"/>
  <variable name="x78_43" index="8203" value="1"/>
  <variable name="x79_47" index="8307" value="1"/>
  <variable name="x80_69" index="8429" value="1"/>
  <variable name="x81_25" index="8485" value="1"/>
  <variable name="x82_74" index="8634" value="1"/>
  <variable name="x83_63" index="8723" value="1"/>
  <variable name="x84_81" index="8841" value="1"/>
  <variable name="x85_82" index="8942" value="1"/>
  <variable name="x86_86" index="9046" value="1"/>
  <variable name="x87_64" index="9124" value="1"/>
  <variable name="x88_79" index="9239" value="1"/>
  <variable name="x89_29" index="9289" value="1"/>
  <variable name="x90_59" index="9419" value="1"/>
  <variable name="x91_33" index="9493" value="1"/>
  <variable name="x92_12" index="9572" value="1"/>
  <variable name="x93_73" index="9733" value="1"/>
  <variable name="x94_87" index="9847" value="1"/>
  <variable name="x95_51" index="9911" value="1"/>
  <variable name="x96_66" index="10026" value="1"/>
  <variable name="x97_30" index="10090" value="1"/>
  <variable name="x98_7" index="10167" value="1"/>
  <variable name="x99_3" index="10263" value="1"/>
  <variable name="u13" index="10373" value="1"/>
  <variable name="u14" index="10374" value="1"/>
  <variable name="u15" index="10375" value="1"/>
 </variables>
</CPLEXSolution>
